data/lp_files/pEFS/52_2.lp
\ Model foo
\ LP format - for model browsing. Use MPS format to capture full model detail.
Minimize
  z
Subject To
 allocateEach[1]: x[1,1] + x[2,1] + x[3,1] = 1
 allocateEach[2]: x[1,2] + x[2,2] + x[3,2] = 1
 allocateEach[3]: x[1,3] + x[2,3] + x[3,3] = 1
 allocateEach[4]: x[1,4] + x[2,4] + x[3,4] = 1
 allocateEach[5]: x[1,5] + x[2,5] + x[3,5] = 1
 allocateEach[6]: x[1,6] + x[2,6] + x[3,6] = 1
 allocateEach[7]: x[1,7] + x[2,7] + x[3,7] = 1
 allocateEach[8]: x[1,8] + x[2,8] + x[3,8] = 1
 allocateEach[9]: x[1,9] + x[2,9] + x[3,9] = 1
 allocateEach[10]: x[1,10] + x[2,10] + x[3,10] = 1
 allocateEach[11]: x[1,11] + x[2,11] + x[3,11] = 1
 allocateEach[12]: x[1,12] + x[2,12] + x[3,12] = 1
 allocateAllCash: cashProportion[1] + cashProportion[2] + cashProportion[3]
   = 1
 findWorstP[1,2]: z + 0.0230326295585413 cashProportion[1]
   - 0.0230326295585413 cashProportion[2] + 0.088936660268714 x[1,1]
   + 0.1355393474088292 x[1,2] + 0.0241228406909789 x[1,3]
   + 0.1402072936660269 x[1,4] + 0.0943570057581574 x[1,5]
   + 0.1229174664107485 x[1,6] + 0.1016660268714012 x[1,7]
   + 0.0062341650671785 x[1,8] + 0.1466257197696737 x[1,9]
   + 0.000168906 x[1,10] + 0.0760076775431862 x[1,11]
   + 0.0401842610364683 x[1,12] - 0.088936660268714 x[2,1]
   - 0.1355393474088292 x[2,2] - 0.0241228406909789 x[2,3]
   - 0.1402072936660269 x[2,4] - 0.0943570057581574 x[2,5]
   - 0.1229174664107485 x[2,6] - 0.1016660268714012 x[2,7]
   - 0.0062341650671785 x[2,8] - 0.1466257197696737 x[2,9]
   - 0.000168906 x[2,10] - 0.0760076775431862 x[2,11]
   - 0.0401842610364683 x[2,12] >= 0
 findWorstP[1,3]: z + 0.0230326295585413 cashProportion[1]
   - 0.0230326295585413 cashProportion[3] + 0.088936660268714 x[1,1]
   + 0.1355393474088292 x[1,2] + 0.0241228406909789 x[1,3]
   + 0.1402072936660269 x[1,4] + 0.0943570057581574 x[1,5]
   + 0.1229174664107485 x[1,6] + 0.1016660268714012 x[1,7]
   + 0.0062341650671785 x[1,8] + 0.1466257197696737 x[1,9]
   + 0.000168906 x[1,10] + 0.0760076775431862 x[1,11]
   + 0.0401842610364683 x[1,12] - 0.088936660268714 x[3,1]
   - 0.1355393474088292 x[3,2] - 0.0241228406909789 x[3,3]
   - 0.1402072936660269 x[3,4] - 0.0943570057581574 x[3,5]
   - 0.1229174664107485 x[3,6] - 0.1016660268714012 x[3,7]
   - 0.0062341650671785 x[3,8] - 0.1466257197696737 x[3,9]
   - 0.000168906 x[3,10] - 0.0760076775431862 x[3,11]
   - 0.0401842610364683 x[3,12] >= 0
 findWorstP[2,1]: z - 0.0250337956240925 cashProportion[1]
   + 0.0250337956240925 cashProportion[2] - 0.0358483953337005 x[1,1]
   - 0.1455798661526393 x[1,2] - 0.0551411071613345 x[1,3]
   - 0.0935763280428578 x[1,4] - 0.1642884560823779 x[1,5]
   - 0.0950616665832207 x[1,6] - 0.0357148817570387 x[1,7]
   - 0.1165907308199402 x[1,8] - 0.0844640264356882 x[1,9]
   - 0.0360319765016105 x[1,10] - 0.1056259283365877 x[1,11]
   - 0.00704284116891136 x[1,12] + 0.0358483953337005 x[2,1]
   + 0.1455798661526393 x[2,2] + 0.0551411071613345 x[2,3]
   + 0.0935763280428578 x[2,4] + 0.1642884560823779 x[2,5]
   + 0.0950616665832207 x[2,6] + 0.0357148817570387 x[2,7]
   + 0.1165907308199402 x[2,8] + 0.0844640264356882 x[2,9]
   + 0.0360319765016105 x[2,10] + 0.1056259283365877 x[2,11]
   + 0.00704284116891136 x[2,12] >= 0
 findWorstP[2,3]: z + 0.0250337956240925 cashProportion[2]
   - 0.0250337956240925 cashProportion[3] + 0.0358483953337005 x[2,1]
   + 0.1455798661526393 x[2,2] + 0.0551411071613345 x[2,3]
   + 0.0935763280428578 x[2,4] + 0.1642884560823779 x[2,5]
   + 0.0950616665832207 x[2,6] + 0.0357148817570387 x[2,7]
   + 0.1165907308199402 x[2,8] + 0.0844640264356882 x[2,9]
   + 0.0360319765016105 x[2,10] + 0.1056259283365877 x[2,11]
   + 0.00704284116891136 x[2,12] - 0.0358483953337005 x[3,1]
   - 0.1455798661526393 x[3,2] - 0.0551411071613345 x[3,3]
   - 0.0935763280428578 x[3,4] - 0.1642884560823779 x[3,5]
   - 0.0950616665832207 x[3,6] - 0.0357148817570387 x[3,7]
   - 0.1165907308199402 x[3,8] - 0.0844640264356882 x[3,9]
   - 0.0360319765016105 x[3,10] - 0.1056259283365877 x[3,11]
   - 0.00704284116891136 x[3,12] >= 0
 findWorstP[3,1]: z - 0.026347684038573 cashProportion[1]
   + 0.026347684038573 cashProportion[3] - 0.0191108534893116 x[1,1]
   - 0.0947462718027085 x[1,2] - 0.0883525671426815 x[1,3]
   - 0.0249951695912596 x[1,4] - 0.1717342045634188 x[1,5]
   - 0.0574730814494739 x[1,6] - 0.0144736610985228 x[1,7]
   - 0.1267674904709209 x[1,8] - 0.0663259032864344 x[1,9]
   - 0.0680648504329803 x[1,10] - 0.0766366303068627 x[1,11]
   - 0.1649716323268518 x[1,12] + 0.0191108534893116 x[3,1]
   + 0.0947462718027085 x[3,2] + 0.0883525671426815 x[3,3]
   + 0.0249951695912596 x[3,4] + 0.1717342045634188 x[3,5]
   + 0.0574730814494739 x[3,6] + 0.0144736610985228 x[3,7]
   + 0.1267674904709209 x[3,8] + 0.0663259032864344 x[3,9]
   + 0.0680648504329803 x[3,10] + 0.0766366303068627 x[3,11]
   + 0.1649716323268518 x[3,12] >= 0
 findWorstP[3,2]: z - 0.026347684038573 cashProportion[2]
   + 0.026347684038573 cashProportion[3] - 0.0191108534893116 x[2,1]
   - 0.0947462718027085 x[2,2] - 0.0883525671426815 x[2,3]
   - 0.0249951695912596 x[2,4] - 0.1717342045634188 x[2,5]
   - 0.0574730814494739 x[2,6] - 0.0144736610985228 x[2,7]
   - 0.1267674904709209 x[2,8] - 0.0663259032864344 x[2,9]
   - 0.0680648504329803 x[2,10] - 0.0766366303068627 x[2,11]
   - 0.1649716323268518 x[2,12] + 0.0191108534893116 x[3,1]
   + 0.0947462718027085 x[3,2] + 0.0883525671426815 x[3,3]
   + 0.0249951695912596 x[3,4] + 0.1717342045634188 x[3,5]
   + 0.0574730814494739 x[3,6] + 0.0144736610985228 x[3,7]
   + 0.1267674904709209 x[3,8] + 0.0663259032864344 x[3,9]
   + 0.0680648504329803 x[3,10] + 0.0766366303068627 x[3,11]
   + 0.1649716323268518 x[3,12] >= 0
Bounds
 z <= 1
 -infinity <= cashProportion[1] <= 1
 -infinity <= cashProportion[2] <= 1
 -infinity <= cashProportion[3] <= 1
Binaries
 x[1,1] x[1,2] x[1,3] x[1,4] x[1,5] x[1,6] x[1,7] x[1,8] x[1,9] x[1,10]
 x[1,11] x[1,12] x[2,1] x[2,2] x[2,3] x[2,4] x[2,5] x[2,6] x[2,7] x[2,8]
 x[2,9] x[2,10] x[2,11] x[2,12] x[3,1] x[3,2] x[3,3] x[3,4] x[3,5] x[3,6]
 x[3,7] x[3,8] x[3,9] x[3,10] x[3,11] x[3,12]
End
