data/mps_files/pEFS/52_2.mps
NAME foo
ROWS
 N  OBJ
 E  allocateEach[1]
 E  allocateEach[2]
 E  allocateEach[3]
 E  allocateEach[4]
 E  allocateEach[5]
 E  allocateEach[6]
 E  allocateEach[7]
 E  allocateEach[8]
 E  allocateEach[9]
 E  allocateEach[10]
 E  allocateEach[11]
 E  allocateEach[12]
 E  allocateAllCash
 G  findWorstP[1,2]
 G  findWorstP[1,3]
 G  findWorstP[2,1]
 G  findWorstP[2,3]
 G  findWorstP[3,1]
 G  findWorstP[3,2]
COLUMNS
    z         OBJ       1
    z         findWorstP[1,2]  1
    z         findWorstP[1,3]  1
    z         findWorstP[2,1]  1
    z         findWorstP[2,3]  1
    z         findWorstP[3,1]  1
    z         findWorstP[3,2]  1
    cashProportion[1]  allocateAllCash  1
    cashProportion[1]  findWorstP[1,2]  2.3032629558541268e-02
    cashProportion[1]  findWorstP[1,3]  2.3032629558541268e-02
    cashProportion[1]  findWorstP[2,1]  -2.5033795624092522e-02
    cashProportion[1]  findWorstP[3,1]  -2.6347684038573006e-02
    cashProportion[2]  allocateAllCash  1
    cashProportion[2]  findWorstP[1,2]  -2.3032629558541268e-02
    cashProportion[2]  findWorstP[2,1]  2.5033795624092522e-02
    cashProportion[2]  findWorstP[2,3]  2.5033795624092522e-02
    cashProportion[2]  findWorstP[3,2]  -2.6347684038573006e-02
    cashProportion[3]  allocateAllCash  1
    cashProportion[3]  findWorstP[1,3]  -2.3032629558541268e-02
    cashProportion[3]  findWorstP[2,3]  -2.5033795624092522e-02
    cashProportion[3]  findWorstP[3,1]  2.6347684038573006e-02
    cashProportion[3]  findWorstP[3,2]  2.6347684038573006e-02
    MARKER    'MARKER'                 'INTORG'
    x[1,1]    allocateEach[1]  1
    x[1,1]    findWorstP[1,2]  8.8936660268714010e-02
    x[1,1]    findWorstP[1,3]  8.8936660268714010e-02
    x[1,1]    findWorstP[2,1]  -3.5848395333700489e-02
    x[1,1]    findWorstP[3,1]  -1.9110853489311616e-02
    x[1,2]    allocateEach[2]  1
    x[1,2]    findWorstP[1,2]  1.3553934740882917e-01
    x[1,2]    findWorstP[1,3]  1.3553934740882917e-01
    x[1,2]    findWorstP[2,1]  -1.4557986615263935e-01
    x[1,2]    findWorstP[3,1]  -9.4746271802708518e-02
    x[1,3]    allocateEach[3]  1
    x[1,3]    findWorstP[1,2]  2.4122840690978885e-02
    x[1,3]    findWorstP[1,3]  2.4122840690978885e-02
    x[1,3]    findWorstP[2,1]  -5.5141107161334461e-02
    x[1,3]    findWorstP[3,1]  -8.8352567142681471e-02
    x[1,4]    allocateEach[4]  1
    x[1,4]    findWorstP[1,2]  1.4020729366602686e-01
    x[1,4]    findWorstP[1,3]  1.4020729366602686e-01
    x[1,4]    findWorstP[2,1]  -9.3576328042857829e-02
    x[1,4]    findWorstP[3,1]  -2.4995169591259591e-02
    x[1,5]    allocateEach[5]  1
    x[1,5]    findWorstP[1,2]  9.4357005758157392e-02
    x[1,5]    findWorstP[1,3]  9.4357005758157392e-02
    x[1,5]    findWorstP[2,1]  -1.6428845608237785e-01
    x[1,5]    findWorstP[3,1]  -1.7173420456341884e-01
    x[1,6]    allocateEach[6]  1
    x[1,6]    findWorstP[1,2]  1.2291746641074855e-01
    x[1,6]    findWorstP[1,3]  1.2291746641074855e-01
    x[1,6]    findWorstP[2,1]  -9.5061666583220655e-02
    x[1,6]    findWorstP[3,1]  -5.7473081449473905e-02
    x[1,7]    allocateEach[7]  1
    x[1,7]    findWorstP[1,2]  1.0166602687140115e-01
    x[1,7]    findWorstP[1,3]  1.0166602687140115e-01
    x[1,7]    findWorstP[2,1]  -3.5714881757038658e-02
    x[1,7]    findWorstP[3,1]  -1.4473661098522769e-02
    x[1,8]    allocateEach[8]  1
    x[1,8]    findWorstP[1,2]  6.2341650671785022e-03
    x[1,8]    findWorstP[1,3]  6.2341650671785022e-03
    x[1,8]    findWorstP[2,1]  -1.1659073081994023e-01
    x[1,8]    findWorstP[3,1]  -1.2676749047092090e-01
    x[1,9]    allocateEach[9]  1
    x[1,9]    findWorstP[1,2]  1.4662571976967370e-01
    x[1,9]    findWorstP[1,3]  1.4662571976967370e-01
    x[1,9]    findWorstP[2,1]  -8.4464026435688164e-02
    x[1,9]    findWorstP[3,1]  -6.6325903286434437e-02
    x[1,10]   allocateEach[10]  1
    x[1,10]   findWorstP[1,2]  1.6890595009596928e-04
    x[1,10]   findWorstP[1,3]  1.6890595009596928e-04
    x[1,10]   findWorstP[2,1]  -0.0360319765016105
    x[1,10]   findWorstP[3,1]  -6.8064850432980259e-02
    x[1,11]   allocateEach[11]  1
    x[1,11]   findWorstP[1,2]  7.6007677543186172e-02
    x[1,11]   findWorstP[1,3]  7.6007677543186172e-02
    x[1,11]   findWorstP[2,1]  -1.0562592833658771e-01
    x[1,11]   findWorstP[3,1]  -7.6636630306862671e-02
    x[1,12]   allocateEach[12]  1
    x[1,12]   findWorstP[1,2]  4.0184261036468327e-02
    x[1,12]   findWorstP[1,3]  4.0184261036468327e-02
    x[1,12]   findWorstP[2,1]  -7.0428411689113625e-03
    x[1,12]   findWorstP[3,1]  -1.6497163232685177e-01
    x[2,1]    allocateEach[1]  1
    x[2,1]    findWorstP[1,2]  -8.8936660268714010e-02
    x[2,1]    findWorstP[2,1]  3.5848395333700489e-02
    x[2,1]    findWorstP[2,3]  3.5848395333700489e-02
    x[2,1]    findWorstP[3,2]  -1.9110853489311616e-02
    x[2,2]    allocateEach[2]  1
    x[2,2]    findWorstP[1,2]  -1.3553934740882917e-01
    x[2,2]    findWorstP[2,1]  1.4557986615263935e-01
    x[2,2]    findWorstP[2,3]  1.4557986615263935e-01
    x[2,2]    findWorstP[3,2]  -9.4746271802708518e-02
    x[2,3]    allocateEach[3]  1
    x[2,3]    findWorstP[1,2]  -2.4122840690978885e-02
    x[2,3]    findWorstP[2,1]  5.5141107161334461e-02
    x[2,3]    findWorstP[2,3]  5.5141107161334461e-02
    x[2,3]    findWorstP[3,2]  -8.8352567142681471e-02
    x[2,4]    allocateEach[4]  1
    x[2,4]    findWorstP[1,2]  -1.4020729366602686e-01
    x[2,4]    findWorstP[2,1]  9.3576328042857829e-02
    x[2,4]    findWorstP[2,3]  9.3576328042857829e-02
    x[2,4]    findWorstP[3,2]  -2.4995169591259591e-02
    x[2,5]    allocateEach[5]  1
    x[2,5]    findWorstP[1,2]  -9.4357005758157392e-02
    x[2,5]    findWorstP[2,1]  1.6428845608237785e-01
    x[2,5]    findWorstP[2,3]  1.6428845608237785e-01
    x[2,5]    findWorstP[3,2]  -1.7173420456341884e-01
    x[2,6]    allocateEach[6]  1
    x[2,6]    findWorstP[1,2]  -1.2291746641074855e-01
    x[2,6]    findWorstP[2,1]  9.5061666583220655e-02
    x[2,6]    findWorstP[2,3]  9.5061666583220655e-02
    x[2,6]    findWorstP[3,2]  -5.7473081449473905e-02
    x[2,7]    allocateEach[7]  1
    x[2,7]    findWorstP[1,2]  -1.0166602687140115e-01
    x[2,7]    findWorstP[2,1]  3.5714881757038658e-02
    x[2,7]    findWorstP[2,3]  3.5714881757038658e-02
    x[2,7]    findWorstP[3,2]  -1.4473661098522769e-02
    x[2,8]    allocateEach[8]  1
    x[2,8]    findWorstP[1,2]  -6.2341650671785022e-03
    x[2,8]    findWorstP[2,1]  1.1659073081994023e-01
    x[2,8]    findWorstP[2,3]  1.1659073081994023e-01
    x[2,8]    findWorstP[3,2]  -1.2676749047092090e-01
    x[2,9]    allocateEach[9]  1
    x[2,9]    findWorstP[1,2]  -1.4662571976967370e-01
    x[2,9]    findWorstP[2,1]  8.4464026435688164e-02
    x[2,9]    findWorstP[2,3]  8.4464026435688164e-02
    x[2,9]    findWorstP[3,2]  -6.6325903286434437e-02
    x[2,10]   allocateEach[10]  1
    x[2,10]   findWorstP[1,2]  -1.6890595009596928e-04
    x[2,10]   findWorstP[2,1]  0.0360319765016105
    x[2,10]   findWorstP[2,3]  0.0360319765016105
    x[2,10]   findWorstP[3,2]  -6.8064850432980259e-02
    x[2,11]   allocateEach[11]  1
    x[2,11]   findWorstP[1,2]  -7.6007677543186172e-02
    x[2,11]   findWorstP[2,1]  1.0562592833658771e-01
    x[2,11]   findWorstP[2,3]  1.0562592833658771e-01
    x[2,11]   findWorstP[3,2]  -7.6636630306862671e-02
    x[2,12]   allocateEach[12]  1
    x[2,12]   findWorstP[1,2]  -4.0184261036468327e-02
    x[2,12]   findWorstP[2,1]  7.0428411689113625e-03
    x[2,12]   findWorstP[2,3]  7.0428411689113625e-03
    x[2,12]   findWorstP[3,2]  -1.6497163232685177e-01
    x[3,1]    allocateEach[1]  1
    x[3,1]    findWorstP[1,3]  -8.8936660268714010e-02
    x[3,1]    findWorstP[2,3]  -3.5848395333700489e-02
    x[3,1]    findWorstP[3,1]  1.9110853489311616e-02
    x[3,1]    findWorstP[3,2]  1.9110853489311616e-02
    x[3,2]    allocateEach[2]  1
    x[3,2]    findWorstP[1,3]  -1.3553934740882917e-01
    x[3,2]    findWorstP[2,3]  -1.4557986615263935e-01
    x[3,2]    findWorstP[3,1]  9.4746271802708518e-02
    x[3,2]    findWorstP[3,2]  9.4746271802708518e-02
    x[3,3]    allocateEach[3]  1
    x[3,3]    findWorstP[1,3]  -2.4122840690978885e-02
    x[3,3]    findWorstP[2,3]  -5.5141107161334461e-02
    x[3,3]    findWorstP[3,1]  8.8352567142681471e-02
    x[3,3]    findWorstP[3,2]  8.8352567142681471e-02
    x[3,4]    allocateEach[4]  1
    x[3,4]    findWorstP[1,3]  -1.4020729366602686e-01
    x[3,4]    findWorstP[2,3]  -9.3576328042857829e-02
    x[3,4]    findWorstP[3,1]  2.4995169591259591e-02
    x[3,4]    findWorstP[3,2]  2.4995169591259591e-02
    x[3,5]    allocateEach[5]  1
    x[3,5]    findWorstP[1,3]  -9.4357005758157392e-02
    x[3,5]    findWorstP[2,3]  -1.6428845608237785e-01
    x[3,5]    findWorstP[3,1]  1.7173420456341884e-01
    x[3,5]    findWorstP[3,2]  1.7173420456341884e-01
    x[3,6]    allocateEach[6]  1
    x[3,6]    findWorstP[1,3]  -1.2291746641074855e-01
    x[3,6]    findWorstP[2,3]  -9.5061666583220655e-02
    x[3,6]    findWorstP[3,1]  5.7473081449473905e-02
    x[3,6]    findWorstP[3,2]  5.7473081449473905e-02
    x[3,7]    allocateEach[7]  1
    x[3,7]    findWorstP[1,3]  -1.0166602687140115e-01
    x[3,7]    findWorstP[2,3]  -3.5714881757038658e-02
    x[3,7]    findWorstP[3,1]  1.4473661098522769e-02
    x[3,7]    findWorstP[3,2]  1.4473661098522769e-02
    x[3,8]    allocateEach[8]  1
    x[3,8]    findWorstP[1,3]  -6.2341650671785022e-03
    x[3,8]    findWorstP[2,3]  -1.1659073081994023e-01
    x[3,8]    findWorstP[3,1]  1.2676749047092090e-01
    x[3,8]    findWorstP[3,2]  1.2676749047092090e-01
    x[3,9]    allocateEach[9]  1
    x[3,9]    findWorstP[1,3]  -1.4662571976967370e-01
    x[3,9]    findWorstP[2,3]  -8.4464026435688164e-02
    x[3,9]    findWorstP[3,1]  6.6325903286434437e-02
    x[3,9]    findWorstP[3,2]  6.6325903286434437e-02
    x[3,10]   allocateEach[10]  1
    x[3,10]   findWorstP[1,3]  -1.6890595009596928e-04
    x[3,10]   findWorstP[2,3]  -0.0360319765016105
    x[3,10]   findWorstP[3,1]  6.8064850432980259e-02
    x[3,10]   findWorstP[3,2]  6.8064850432980259e-02
    x[3,11]   allocateEach[11]  1
    x[3,11]   findWorstP[1,3]  -7.6007677543186172e-02
    x[3,11]   findWorstP[2,3]  -1.0562592833658771e-01
    x[3,11]   findWorstP[3,1]  7.6636630306862671e-02
    x[3,11]   findWorstP[3,2]  7.6636630306862671e-02
    x[3,12]   allocateEach[12]  1
    x[3,12]   findWorstP[1,3]  -4.0184261036468327e-02
    x[3,12]   findWorstP[2,3]  -7.0428411689113625e-03
    x[3,12]   findWorstP[3,1]  1.6497163232685177e-01
    x[3,12]   findWorstP[3,2]  1.6497163232685177e-01
    MARKER    'MARKER'                 'INTEND'
RHS
    RHS1      allocateEach[1]  1
    RHS1      allocateEach[2]  1
    RHS1      allocateEach[3]  1
    RHS1      allocateEach[4]  1
    RHS1      allocateEach[5]  1
    RHS1      allocateEach[6]  1
    RHS1      allocateEach[7]  1
    RHS1      allocateEach[8]  1
    RHS1      allocateEach[9]  1
    RHS1      allocateEach[10]  1
    RHS1      allocateEach[11]  1
    RHS1      allocateEach[12]  1
    RHS1      allocateAllCash  1
BOUNDS
 UP BND1      z         1
 MI BND1      cashProportion[1]
 UP BND1      cashProportion[1]  1
 MI BND1      cashProportion[2]
 UP BND1      cashProportion[2]  1
 MI BND1      cashProportion[3]
 UP BND1      cashProportion[3]  1
 BV BND1      x[1,1]  
 BV BND1      x[1,2]  
 BV BND1      x[1,3]  
 BV BND1      x[1,4]  
 BV BND1      x[1,5]  
 BV BND1      x[1,6]  
 BV BND1      x[1,7]  
 BV BND1      x[1,8]  
 BV BND1      x[1,9]  
 BV BND1      x[1,10] 
 BV BND1      x[1,11] 
 BV BND1      x[1,12] 
 BV BND1      x[2,1]  
 BV BND1      x[2,2]  
 BV BND1      x[2,3]  
 BV BND1      x[2,4]  
 BV BND1      x[2,5]  
 BV BND1      x[2,6]  
 BV BND1      x[2,7]  
 BV BND1      x[2,8]  
 BV BND1      x[2,9]  
 BV BND1      x[2,10] 
 BV BND1      x[2,11] 
 BV BND1      x[2,12] 
 BV BND1      x[3,1]  
 BV BND1      x[3,2]  
 BV BND1      x[3,3]  
 BV BND1      x[3,4]  
 BV BND1      x[3,5]  
 BV BND1      x[3,6]  
 BV BND1      x[3,7]  
 BV BND1      x[3,8]  
 BV BND1      x[3,9]  
 BV BND1      x[3,10] 
 BV BND1      x[3,11] 
 BV BND1      x[3,12] 
ENDATA
